(set-info :source |printed by MathSAT|)
(declare-fun call__PRODUCER_CONSUMMER_.ite2 () Int)
(declare-fun call__PRODUCER_CONSUMMER_.flby4 () Int)
(declare-fun call_FirstB.First () Bool)
(declare-fun b () Int)
(declare-fun call_excludes3.excludes () Bool)
(declare-fun call__PRODUCER_CONSUMMER_.flby5 () Int)
(declare-fun call_First.First () Int)
(declare-fun call__PRODUCER_CONSUMMER_.a () Int)
(declare-fun _OK_ () Bool)
(declare-fun call__PRODUCER_CONSUMMER_.ite5 () Int)
(declare-fun call_FirstB.flby () Bool)
(declare-fun flby () Bool)
(declare-fun call__PRODUCER_CONSUMMER_.ite11 () Int)
(declare-fun i () Int)
(declare-fun call__PRODUCER_CONSUMMER_.o1 () Int)
(declare-fun call_Sofar.flby () Bool)
(declare-fun a () Int)
(declare-fun param_etat3 () Bool)
(declare-fun call__PRODUCER_CONSUMMER_.flby () Int)
(declare-fun call__PRODUCER_CONSUMMER_.flby2 () Int)
(declare-fun call__PRODUCER_CONSUMMER_.ite4 () Int)
(declare-fun call__PRODUCER_CONSUMMER_.i () Int)
(declare-fun call__PRODUCER_CONSUMMER_.ite9 () Int)
(declare-fun param_a_init () Int)
(declare-fun call__PRODUCER_CONSUMMER_.b () Int)
(declare-fun call__PRODUCER_CONSUMMER_.ite () Int)
(declare-fun o1 () Int)
(declare-fun call__PRODUCER_CONSUMMER_.ite8 () Int)
(declare-fun env () Bool)
(declare-fun call__PRODUCER_CONSUMMER_.ite7 () Int)
(declare-fun call__PRODUCER_CONSUMMER_.ite3 () Int)
(declare-fun call__PRODUCER_CONSUMMER_.ite10 () Int)
(declare-fun o2 () Int)
(declare-fun call_Sofar.Sofar () Bool)
(declare-fun call__PRODUCER_CONSUMMER_.o2 () Int)
(declare-fun call_First.flby () Int)
(declare-fun param_etat1 () Bool)
(declare-fun call__PRODUCER_CONSUMMER_.ite6 () Int)
(declare-fun param_etat2 () Bool)
(declare-fun call__PRODUCER_CONSUMMER_.flby3 () Int)
(define-fun .def_474 () Bool (= call_First.flby call_First.First))
(define-fun .def_472 () Bool (= call_FirstB.flby call_FirstB.First))
(define-fun .def_470 () Bool (= call_Sofar.flby call_Sofar.Sofar))
(define-fun .def_464 () Bool (and param_etat1 param_etat2))
(define-fun .def_463 () Bool (and param_etat3 param_etat1))
(define-fun .def_465 () Bool (or .def_463 .def_464))
(define-fun .def_462 () Bool (and param_etat3 param_etat2))
(define-fun .def_466 () Bool (or .def_462 .def_465))
(define-fun .def_467 () Bool (not .def_466))
(define-fun .def_468 () Bool (= call_excludes3.excludes .def_467))
(define-fun .def_460 () Bool (= call__PRODUCER_CONSUMMER_.flby5 call__PRODUCER_CONSUMMER_.o2))
(define-fun .def_458 () Bool (= call__PRODUCER_CONSUMMER_.flby4 call__PRODUCER_CONSUMMER_.o1))
(define-fun .def_456 () Bool (= call__PRODUCER_CONSUMMER_.a call__PRODUCER_CONSUMMER_.flby3))
(define-fun .def_454 () Bool (= call__PRODUCER_CONSUMMER_.flby2 call__PRODUCER_CONSUMMER_.b))
(define-fun .def_452 () Bool (= call__PRODUCER_CONSUMMER_.flby call__PRODUCER_CONSUMMER_.i))
(define-fun .def_448 () Bool (= call__PRODUCER_CONSUMMER_.ite6 call__PRODUCER_CONSUMMER_.ite4))
(define-fun .def_368 () Bool (not param_etat2))
(define-fun .def_449 () Bool (or .def_368 .def_448))
(define-fun .def_445 () Bool (= call__PRODUCER_CONSUMMER_.ite6 call__PRODUCER_CONSUMMER_.ite5))
(define-fun .def_446 () Bool (or param_etat2 .def_445))
(define-fun .def_450 () Bool (and .def_446 .def_449))
(define-fun .def_440 () Bool (= call__PRODUCER_CONSUMMER_.ite7 call__PRODUCER_CONSUMMER_.ite3))
(define-fun .def_361 () Bool (not param_etat1))
(define-fun .def_441 () Bool (or .def_361 .def_440))
(define-fun .def_437 () Bool (= call__PRODUCER_CONSUMMER_.ite7 call__PRODUCER_CONSUMMER_.ite6))
(define-fun .def_438 () Bool (or param_etat1 .def_437))
(define-fun .def_442 () Bool (and .def_438 .def_441))
(define-fun .def_430 () Bool (<= call_First.First 0))
(define-fun .def_431 () Bool (not .def_430))
(define-fun .def_428 () Bool (and call_Sofar.Sofar call_FirstB.First))
(define-fun .def_432 () Bool (and .def_428 .def_431))
(define-fun .def_433 () Bool (= env .def_432))
(define-fun .def_424 () Bool (= o2 call__PRODUCER_CONSUMMER_.o2))
(define-fun .def_420 () Bool (= o1 call__PRODUCER_CONSUMMER_.o1))
(define-fun .def_416 () Bool (= call__PRODUCER_CONSUMMER_.a a))
(define-fun .def_413 () Bool (= b call__PRODUCER_CONSUMMER_.b))
(define-fun .def_409 () Bool (= i call__PRODUCER_CONSUMMER_.i))
(define-fun .def_404 () Bool (not env))
(define-fun .def_405 () Bool (or flby .def_404))
(define-fun .def_406 () Bool (= _OK_ .def_405))
(define-fun .def_410 () Bool (and .def_406 .def_409))
(define-fun .def_414 () Bool (and .def_410 .def_413))
(define-fun .def_417 () Bool (and .def_414 .def_416))
(define-fun .def_421 () Bool (and .def_417 .def_420))
(define-fun .def_425 () Bool (and .def_421 .def_424))
(define-fun .def_434 () Bool (and .def_425 .def_433))
(define-fun .def_443 () Bool (and .def_434 .def_442))
(define-fun .def_451 () Bool (and .def_443 .def_450))
(define-fun .def_453 () Bool (and .def_451 .def_452))
(define-fun .def_455 () Bool (and .def_453 .def_454))
(define-fun .def_457 () Bool (and .def_455 .def_456))
(define-fun .def_459 () Bool (and .def_457 .def_458))
(define-fun .def_461 () Bool (and .def_459 .def_460))
(define-fun .def_469 () Bool (and .def_461 .def_468))
(define-fun .def_471 () Bool (and .def_469 .def_470))
(define-fun .def_473 () Bool (and .def_471 .def_472))
(define-fun .def_475 () Bool (and .def_473 .def_474))
(define-fun .def_400 () Bool (= param_a_init call_First.flby))
(define-fun .def_388 () Bool (or param_etat1 param_etat2))
(define-fun .def_389 () Bool (or param_etat3 .def_388))
(define-fun .def_390 () Bool (not .def_389))
(define-fun .def_397 () Bool (= .def_390 call_FirstB.flby))
(define-fun .def_392 () Bool (or .def_390 call_excludes3.excludes))
(define-fun .def_394 () Bool (= .def_392 call_Sofar.flby))
(define-fun .def_386 () Bool (= call__PRODUCER_CONSUMMER_.flby5 0))
(define-fun .def_383 () Bool (= call__PRODUCER_CONSUMMER_.flby4 0))
(define-fun .def_380 () Bool (= param_a_init call__PRODUCER_CONSUMMER_.flby3))
(define-fun .def_376 () Bool (= call__PRODUCER_CONSUMMER_.flby2 0))
(define-fun .def_373 () Bool (= call__PRODUCER_CONSUMMER_.flby call__PRODUCER_CONSUMMER_.a))
(define-fun .def_366 () Bool (= call__PRODUCER_CONSUMMER_.ite9 call__PRODUCER_CONSUMMER_.ite8))
(define-fun .def_369 () Bool (or .def_366 .def_368))
(define-fun .def_359 () Bool (= call__PRODUCER_CONSUMMER_.ite2 call__PRODUCER_CONSUMMER_.ite))
(define-fun .def_362 () Bool (or .def_359 .def_361))
(define-fun .def_353 () Bool (= call__PRODUCER_CONSUMMER_.ite11 call__PRODUCER_CONSUMMER_.ite10))
(define-fun .def_350 () Bool (not param_etat3))
(define-fun .def_354 () Bool (or .def_350 .def_353))
(define-fun .def_356 () Bool (and .def_354 flby))
(define-fun .def_363 () Bool (and .def_356 .def_362))
(define-fun .def_370 () Bool (and .def_363 .def_369))
(define-fun .def_374 () Bool (and .def_370 .def_373))
(define-fun .def_377 () Bool (and .def_374 .def_376))
(define-fun .def_381 () Bool (and .def_377 .def_380))
(define-fun .def_384 () Bool (and .def_381 .def_383))
(define-fun .def_387 () Bool (and .def_384 .def_386))
(define-fun .def_395 () Bool (and .def_387 .def_394))
(define-fun .def_398 () Bool (and .def_395 .def_397))
(define-fun .def_401 () Bool (and .def_398 .def_400))
(define-fun .def_476 () Bool (and .def_401 .def_475))
(assert .def_476)
